NAME CFLP
ROWS
 N  OBJ
 E  demand_1
 E  demand_2
 E  demand_3
 E  demand_4
 E  demand_5
 E  demand_6
 E  demand_7
 E  demand_8
 E  demand_9
 E  demand_10
 E  demand_11
 E  demand_12
 E  demand_13
 E  demand_14
 E  demand_15
 E  demand_16
 E  demand_17
 E  demand_18
 E  demand_19
 E  demand_20
 E  demand_21
 E  demand_22
 E  demand_23
 E  demand_24
 E  demand_25
 E  demand_26
 E  demand_27
 E  demand_28
 E  demand_29
 E  demand_30
 E  demand_31
 E  demand_32
 E  demand_33
 E  demand_34
 E  demand_35
 E  demand_36
 E  demand_37
 E  demand_38
 L  c_disjunction_1_diajunct_1
 L  c_disjunction_1_disjunct_2
 E  R40     
 L  c_disjunction_2_diajunct_1
 L  c_disjunction_2_disjunct_2
 E  R43     
 L  c_disjunction_3_diajunct_1
 L  c_disjunction_3_disjunct_2
 E  R46     
 L  c_disjunction_4_diajunct_1
 L  c_disjunction_4_disjunct_2
 E  R49     
 L  c_disjunction_5_diajunct_1
 L  c_disjunction_5_disjunct_2
 E  R52     
 L  c_disjunction_6_diajunct_1
 L  c_disjunction_6_disjunct_2
 E  R55     
 L  c_disjunction_7_diajunct_1
 L  c_disjunction_7_disjunct_2
 E  R58     
 L  c_disjunction_8_diajunct_1
 L  c_disjunction_8_disjunct_2
 E  R61     
 L  c_disjunction_9_diajunct_1
 L  c_disjunction_9_disjunct_2
 E  R64     
 L  c_disjunction_10_diajunct_1
 L  c_disjunction_10_disjunct_2
 E  R67     
 L  c_disjunction_11_diajunct_1
 L  c_disjunction_11_disjunct_2
 E  R70     
 L  c_disjunction_12_diajunct_1
 L  c_disjunction_12_disjunct_2
 E  R73     
 L  c_disjunction_13_diajunct_1
 L  c_disjunction_13_disjunct_2
 E  R76     
 L  c_disjunction_14_diajunct_1
 L  c_disjunction_14_disjunct_2
 E  R79     
 L  c_disjunction_15_diajunct_1
 L  c_disjunction_15_disjunct_2
 E  R82     
 L  c_disjunction_16_diajunct_1
 L  c_disjunction_16_disjunct_2
 E  R85     
 L  c_disjunction_17_diajunct_1
 L  c_disjunction_17_disjunct_2
 E  R88     
 L  c_disjunction_18_diajunct_1
 L  c_disjunction_18_disjunct_2
 E  R91     
 L  c_disjunction_19_diajunct_1
 L  c_disjunction_19_disjunct_2
 E  R94     
 L  c_disjunction_20_diajunct_1
 L  c_disjunction_20_disjunct_2
 E  R97     
 L  c_disjunction_21_diajunct_1
 L  c_disjunction_21_disjunct_2
 E  R100    
 L  c_disjunction_22_diajunct_1
 L  c_disjunction_22_disjunct_2
 E  R103    
 L  c_disjunction_23_diajunct_1
 L  c_disjunction_23_disjunct_2
 E  R106    
 L  c_disjunction_24_diajunct_1
 L  c_disjunction_24_disjunct_2
 E  R109    
 L  c_disjunction_25_diajunct_1
 L  c_disjunction_25_disjunct_2
 E  R112    
 L  c_disjunction_26_diajunct_1
 L  c_disjunction_26_disjunct_2
 E  R115    
 L  c_disjunction_27_diajunct_1
 L  c_disjunction_27_disjunct_2
 E  R118    
 L  c_disjunction_28_diajunct_1
 L  c_disjunction_28_disjunct_2
 E  R121    
 L  c_disjunction_29_diajunct_1
 L  c_disjunction_29_disjunct_2
 E  R124    
 L  c_disjunction_30_diajunct_1
 L  c_disjunction_30_disjunct_2
 E  R127    
 L  c_disjunction_31_diajunct_1
 L  c_disjunction_31_disjunct_2
 E  R130    
 L  c_disjunction_32_diajunct_1
 L  c_disjunction_32_disjunct_2
 E  R133    
 L  c_disjunction_33_diajunct_1
 L  c_disjunction_33_disjunct_2
 E  R136    
 L  c_disjunction_34_diajunct_1
 L  c_disjunction_34_disjunct_2
 E  R139    
 L  c_disjunction_35_diajunct_1
 L  c_disjunction_35_disjunct_2
 E  R142    
 L  c_disjunction_36_diajunct_1
 L  c_disjunction_36_disjunct_2
 E  R145    
 L  c_disjunction_37_diajunct_1
 L  c_disjunction_37_disjunct_2
 E  R148    
 L  c_disjunction_38_diajunct_1
 L  c_disjunction_38_disjunct_2
 E  R151    
COLUMNS
    MARKER    'MARKER'                 'INTORG'
    ind_disjunction_1_disjunct_1  OBJ       1185
    ind_disjunction_1_disjunct_1  c_disjunction_1_diajunct_1  -119
    ind_disjunction_1_disjunct_1  R40       1
    ind_disjunction_2_disjunct_1  OBJ       1185
    ind_disjunction_2_disjunct_1  c_disjunction_2_diajunct_1  -119
    ind_disjunction_2_disjunct_1  R43       1
    ind_disjunction_3_disjunct_1  OBJ       1185
    ind_disjunction_3_disjunct_1  c_disjunction_3_diajunct_1  -119
    ind_disjunction_3_disjunct_1  R46       1
    ind_disjunction_4_disjunct_1  OBJ       1185
    ind_disjunction_4_disjunct_1  c_disjunction_4_diajunct_1  -119
    ind_disjunction_4_disjunct_1  R49       1
    ind_disjunction_5_disjunct_1  OBJ       1185
    ind_disjunction_5_disjunct_1  c_disjunction_5_diajunct_1  -119
    ind_disjunction_5_disjunct_1  R52       1
    ind_disjunction_6_disjunct_1  OBJ       1185
    ind_disjunction_6_disjunct_1  c_disjunction_6_diajunct_1  -119
    ind_disjunction_6_disjunct_1  R55       1
    ind_disjunction_7_disjunct_1  OBJ       1185
    ind_disjunction_7_disjunct_1  c_disjunction_7_diajunct_1  -119
    ind_disjunction_7_disjunct_1  R58       1
    ind_disjunction_8_disjunct_1  OBJ       1185
    ind_disjunction_8_disjunct_1  c_disjunction_8_diajunct_1  -119
    ind_disjunction_8_disjunct_1  R61       1
    ind_disjunction_9_disjunct_1  OBJ       1185
    ind_disjunction_9_disjunct_1  c_disjunction_9_diajunct_1  -119
    ind_disjunction_9_disjunct_1  R64       1
    ind_disjunction_10_disjunct_1  OBJ       1185
    ind_disjunction_10_disjunct_1  c_disjunction_10_diajunct_1  -119
    ind_disjunction_10_disjunct_1  R67       1
    ind_disjunction_11_disjunct_1  OBJ       1185
    ind_disjunction_11_disjunct_1  c_disjunction_11_diajunct_1  -119
    ind_disjunction_11_disjunct_1  R70       1
    ind_disjunction_12_disjunct_1  OBJ       1185
    ind_disjunction_12_disjunct_1  c_disjunction_12_diajunct_1  -119
    ind_disjunction_12_disjunct_1  R73       1
    ind_disjunction_13_disjunct_1  OBJ       1185
    ind_disjunction_13_disjunct_1  c_disjunction_13_diajunct_1  -119
    ind_disjunction_13_disjunct_1  R76       1
    ind_disjunction_14_disjunct_1  OBJ       1185
    ind_disjunction_14_disjunct_1  c_disjunction_14_diajunct_1  -119
    ind_disjunction_14_disjunct_1  R79       1
    ind_disjunction_15_disjunct_1  OBJ       1185
    ind_disjunction_15_disjunct_1  c_disjunction_15_diajunct_1  -119
    ind_disjunction_15_disjunct_1  R82       1
    ind_disjunction_16_disjunct_1  OBJ       1185
    ind_disjunction_16_disjunct_1  c_disjunction_16_diajunct_1  -119
    ind_disjunction_16_disjunct_1  R85       1
    ind_disjunction_17_disjunct_1  OBJ       1185
    ind_disjunction_17_disjunct_1  c_disjunction_17_diajunct_1  -119
    ind_disjunction_17_disjunct_1  R88       1
    ind_disjunction_18_disjunct_1  OBJ       1185
    ind_disjunction_18_disjunct_1  c_disjunction_18_diajunct_1  -119
    ind_disjunction_18_disjunct_1  R91       1
    ind_disjunction_19_disjunct_1  OBJ       1185
    ind_disjunction_19_disjunct_1  c_disjunction_19_diajunct_1  -119
    ind_disjunction_19_disjunct_1  R94       1
    ind_disjunction_20_disjunct_1  OBJ       1185
    ind_disjunction_20_disjunct_1  c_disjunction_20_diajunct_1  -119
    ind_disjunction_20_disjunct_1  R97       1
    ind_disjunction_21_disjunct_1  OBJ       1185
    ind_disjunction_21_disjunct_1  c_disjunction_21_diajunct_1  -119
    ind_disjunction_21_disjunct_1  R100      1
    ind_disjunction_22_disjunct_1  OBJ       1185
    ind_disjunction_22_disjunct_1  c_disjunction_22_diajunct_1  -119
    ind_disjunction_22_disjunct_1  R103      1
    ind_disjunction_23_disjunct_1  OBJ       1185
    ind_disjunction_23_disjunct_1  c_disjunction_23_diajunct_1  -119
    ind_disjunction_23_disjunct_1  R106      1
    ind_disjunction_24_disjunct_1  OBJ       1185
    ind_disjunction_24_disjunct_1  c_disjunction_24_diajunct_1  -119
    ind_disjunction_24_disjunct_1  R109      1
    ind_disjunction_25_disjunct_1  OBJ       1185
    ind_disjunction_25_disjunct_1  c_disjunction_25_diajunct_1  -119
    ind_disjunction_25_disjunct_1  R112      1
    ind_disjunction_26_disjunct_1  OBJ       1185
    ind_disjunction_26_disjunct_1  c_disjunction_26_diajunct_1  -119
    ind_disjunction_26_disjunct_1  R115      1
    ind_disjunction_27_disjunct_1  OBJ       1185
    ind_disjunction_27_disjunct_1  c_disjunction_27_diajunct_1  -119
    ind_disjunction_27_disjunct_1  R118      1
    ind_disjunction_28_disjunct_1  OBJ       1185
    ind_disjunction_28_disjunct_1  c_disjunction_28_diajunct_1  -119
    ind_disjunction_28_disjunct_1  R121      1
    ind_disjunction_29_disjunct_1  OBJ       1185
    ind_disjunction_29_disjunct_1  c_disjunction_29_diajunct_1  -119
    ind_disjunction_29_disjunct_1  R124      1
    ind_disjunction_30_disjunct_1  OBJ       1185
    ind_disjunction_30_disjunct_1  c_disjunction_30_diajunct_1  -119
    ind_disjunction_30_disjunct_1  R127      1
    ind_disjunction_31_disjunct_1  OBJ       1185
    ind_disjunction_31_disjunct_1  c_disjunction_31_diajunct_1  -119
    ind_disjunction_31_disjunct_1  R130      1
    ind_disjunction_32_disjunct_1  OBJ       1185
    ind_disjunction_32_disjunct_1  c_disjunction_32_diajunct_1  -119
    ind_disjunction_32_disjunct_1  R133      1
    ind_disjunction_33_disjunct_1  OBJ       1185
    ind_disjunction_33_disjunct_1  c_disjunction_33_diajunct_1  -119
    ind_disjunction_33_disjunct_1  R136      1
    ind_disjunction_34_disjunct_1  OBJ       1185
    ind_disjunction_34_disjunct_1  c_disjunction_34_diajunct_1  -119
    ind_disjunction_34_disjunct_1  R139      1
    ind_disjunction_35_disjunct_1  OBJ       1185
    ind_disjunction_35_disjunct_1  c_disjunction_35_diajunct_1  -119
    ind_disjunction_35_disjunct_1  R142      1
    ind_disjunction_36_disjunct_1  OBJ       1185
    ind_disjunction_36_disjunct_1  c_disjunction_36_diajunct_1  -119
    ind_disjunction_36_disjunct_1  R145      1
    ind_disjunction_37_disjunct_1  OBJ       1185
    ind_disjunction_37_disjunct_1  c_disjunction_37_diajunct_1  -119
    ind_disjunction_37_disjunct_1  R148      1
    ind_disjunction_38_disjunct_1  OBJ       1185
    ind_disjunction_38_disjunct_1  c_disjunction_38_diajunct_1  -119
    ind_disjunction_38_disjunct_1  R151      1
    ind_disjunction_1_disjunct_2  c_disjunction_1_disjunct_2  2
    ind_disjunction_1_disjunct_2  R40       1
    ind_disjunction_2_disjunct_2  c_disjunction_2_disjunct_2  3
    ind_disjunction_2_disjunct_2  R43       1
    ind_disjunction_3_disjunct_2  c_disjunction_3_disjunct_2  2
    ind_disjunction_3_disjunct_2  R46       1
    ind_disjunction_4_disjunct_2  c_disjunction_4_disjunct_2  2
    ind_disjunction_4_disjunct_2  R49       1
    ind_disjunction_5_disjunct_2  c_disjunction_5_disjunct_2  3
    ind_disjunction_5_disjunct_2  R52       1
    ind_disjunction_6_disjunct_2  c_disjunction_6_disjunct_2  3
    ind_disjunction_6_disjunct_2  R55       1
    ind_disjunction_7_disjunct_2  c_disjunction_7_disjunct_2  3
    ind_disjunction_7_disjunct_2  R58       1
    ind_disjunction_8_disjunct_2  c_disjunction_8_disjunct_2  2
    ind_disjunction_8_disjunct_2  R61       1
    ind_disjunction_9_disjunct_2  c_disjunction_9_disjunct_2  4
    ind_disjunction_9_disjunct_2  R64       1
    ind_disjunction_10_disjunct_2  c_disjunction_10_disjunct_2  4
    ind_disjunction_10_disjunct_2  R67       1
    ind_disjunction_11_disjunct_2  c_disjunction_11_disjunct_2  3
    ind_disjunction_11_disjunct_2  R70       1
    ind_disjunction_12_disjunct_2  c_disjunction_12_disjunct_2  3
    ind_disjunction_12_disjunct_2  R73       1
    ind_disjunction_13_disjunct_2  c_disjunction_13_disjunct_2  5
    ind_disjunction_13_disjunct_2  R76       1
    ind_disjunction_14_disjunct_2  c_disjunction_14_disjunct_2  6
    ind_disjunction_14_disjunct_2  R79       1
    ind_disjunction_15_disjunct_2  c_disjunction_15_disjunct_2  2
    ind_disjunction_15_disjunct_2  R82       1
    ind_disjunction_16_disjunct_2  c_disjunction_16_disjunct_2  2
    ind_disjunction_16_disjunct_2  R85       1
    ind_disjunction_17_disjunct_2  c_disjunction_17_disjunct_2  4
    ind_disjunction_17_disjunct_2  R88       1
    ind_disjunction_18_disjunct_2  c_disjunction_18_disjunct_2  1
    ind_disjunction_18_disjunct_2  R91       1
    ind_disjunction_19_disjunct_2  c_disjunction_19_disjunct_2  4
    ind_disjunction_19_disjunct_2  R94       1
    ind_disjunction_20_disjunct_2  c_disjunction_20_disjunct_2  3
    ind_disjunction_20_disjunct_2  R97       1
    ind_disjunction_21_disjunct_2  c_disjunction_21_disjunct_2  2
    ind_disjunction_21_disjunct_2  R100      1
    ind_disjunction_22_disjunct_2  c_disjunction_22_disjunct_2  3
    ind_disjunction_22_disjunct_2  R103      1
    ind_disjunction_23_disjunct_2  c_disjunction_23_disjunct_2  5
    ind_disjunction_23_disjunct_2  R106      1
    ind_disjunction_24_disjunct_2  c_disjunction_24_disjunct_2  4
    ind_disjunction_24_disjunct_2  R109      1
    ind_disjunction_25_disjunct_2  c_disjunction_25_disjunct_2  4
    ind_disjunction_25_disjunct_2  R112      1
    ind_disjunction_26_disjunct_2  c_disjunction_26_disjunct_2  3
    ind_disjunction_26_disjunct_2  R115      1
    ind_disjunction_27_disjunct_2  c_disjunction_27_disjunct_2  4
    ind_disjunction_27_disjunct_2  R118      1
    ind_disjunction_28_disjunct_2  c_disjunction_28_disjunct_2  4
    ind_disjunction_28_disjunct_2  R121      1
    ind_disjunction_29_disjunct_2  c_disjunction_29_disjunct_2  1
    ind_disjunction_29_disjunct_2  R124      1
    ind_disjunction_30_disjunct_2  c_disjunction_30_disjunct_2  2
    ind_disjunction_30_disjunct_2  R127      1
    ind_disjunction_31_disjunct_2  c_disjunction_31_disjunct_2  3
    ind_disjunction_31_disjunct_2  R130      1
    ind_disjunction_32_disjunct_2  c_disjunction_32_disjunct_2  4
    ind_disjunction_32_disjunct_2  R133      1
    ind_disjunction_33_disjunct_2  c_disjunction_33_disjunct_2  2
    ind_disjunction_33_disjunct_2  R136      1
    ind_disjunction_34_disjunct_2  c_disjunction_34_disjunct_2  3
    ind_disjunction_34_disjunct_2  R139      1
    ind_disjunction_35_disjunct_2  c_disjunction_35_disjunct_2  2
    ind_disjunction_35_disjunct_2  R142      1
    ind_disjunction_36_disjunct_2  c_disjunction_36_disjunct_2  2
    ind_disjunction_36_disjunct_2  R145      1
    ind_disjunction_37_disjunct_2  c_disjunction_37_disjunct_2  2
    ind_disjunction_37_disjunct_2  R148      1
    ind_disjunction_38_disjunct_2  c_disjunction_38_disjunct_2  3
    ind_disjunction_38_disjunct_2  R151      1
    x[1,1]    demand_1  1
    x[1,1]    c_disjunction_1_diajunct_1  12
    x[1,1]    c_disjunction_1_disjunct_2  1
    x[11,1]   OBJ       12.6
    x[11,1]   demand_1  1
    x[11,1]   c_disjunction_11_diajunct_1  12
    x[11,1]   c_disjunction_11_disjunct_2  1
    x[24,1]   OBJ       13.9
    x[24,1]   demand_1  1
    x[24,1]   c_disjunction_24_diajunct_1  12
    x[24,1]   c_disjunction_24_disjunct_2  1
    x[2,2]    demand_2  1
    x[2,2]    c_disjunction_2_diajunct_1  29
    x[2,2]    c_disjunction_2_disjunct_2  1
    x[7,2]    OBJ       19.6
    x[7,2]    demand_2  1
    x[7,2]    c_disjunction_7_diajunct_1  29
    x[7,2]    c_disjunction_7_disjunct_2  1
    x[9,2]    OBJ       38.7
    x[9,2]    demand_2  1
    x[9,2]    c_disjunction_9_diajunct_1  29
    x[9,2]    c_disjunction_9_disjunct_2  1
    x[3,3]    demand_3  1
    x[3,3]    c_disjunction_3_diajunct_1  26
    x[3,3]    c_disjunction_3_disjunct_2  1
    x[27,3]   OBJ       30.7
    x[27,3]   demand_3  1
    x[27,3]   c_disjunction_27_diajunct_1  26
    x[27,3]   c_disjunction_27_disjunct_2  1
    x[13,3]   OBJ       41
    x[13,3]   demand_3  1
    x[13,3]   c_disjunction_13_diajunct_1  26
    x[13,3]   c_disjunction_13_disjunct_2  1
    x[4,4]    demand_4  1
    x[4,4]    c_disjunction_4_diajunct_1  9
    x[4,4]    c_disjunction_4_disjunct_2  1
    x[28,4]   OBJ       2.9
    x[28,4]   demand_4  1
    x[28,4]   c_disjunction_28_diajunct_1  9
    x[28,4]   c_disjunction_28_disjunct_2  1
    x[17,4]   OBJ       6.8
    x[17,4]   demand_4  1
    x[17,4]   c_disjunction_17_diajunct_1  9
    x[17,4]   c_disjunction_17_disjunct_2  1
    x[5,5]    demand_5  1
    x[5,5]    c_disjunction_5_diajunct_1  9
    x[5,5]    c_disjunction_5_disjunct_2  1
    x[14,5]   OBJ       7.4
    x[14,5]   demand_5  1
    x[14,5]   c_disjunction_14_diajunct_1  9
    x[14,5]   c_disjunction_14_disjunct_2  1
    x[33,5]   OBJ       7.8
    x[33,5]   demand_5  1
    x[33,5]   c_disjunction_33_diajunct_1  9
    x[33,5]   c_disjunction_33_disjunct_2  1
    x[6,6]    demand_6  1
    x[6,6]    c_disjunction_6_diajunct_1  29
    x[6,6]    c_disjunction_6_disjunct_2  1
    x[38,6]   OBJ       31.1
    x[38,6]   demand_6  1
    x[38,6]   c_disjunction_38_diajunct_1  29
    x[38,6]   c_disjunction_38_disjunct_2  1
    x[23,6]   OBJ       39.6
    x[23,6]   demand_6  1
    x[23,6]   c_disjunction_23_diajunct_1  29
    x[23,6]   c_disjunction_23_disjunct_2  1
    x[7,7]    demand_7  1
    x[7,7]    c_disjunction_7_diajunct_1  5
    x[7,7]    c_disjunction_7_disjunct_2  1
    x[2,7]    OBJ       3.4
    x[2,7]    demand_7  1
    x[2,7]    c_disjunction_2_diajunct_1  5
    x[2,7]    c_disjunction_2_disjunct_2  1
    x[9,7]    OBJ       4.7
    x[9,7]    demand_7  1
    x[9,7]    c_disjunction_9_diajunct_1  5
    x[9,7]    c_disjunction_9_disjunct_2  1
    x[8,8]    demand_8  1
    x[8,8]    c_disjunction_8_diajunct_1  29
    x[8,8]    c_disjunction_8_disjunct_2  1
    x[35,8]   OBJ       20.5
    x[35,8]   demand_8  1
    x[35,8]   c_disjunction_35_diajunct_1  29
    x[35,8]   c_disjunction_35_disjunct_2  1
    x[14,8]   OBJ       49.6
    x[14,8]   demand_8  1
    x[14,8]   c_disjunction_14_diajunct_1  29
    x[14,8]   c_disjunction_14_disjunct_2  1
    x[9,9]    demand_9  1
    x[9,9]    c_disjunction_9_diajunct_1  9
    x[9,9]    c_disjunction_9_disjunct_2  1
    x[14,9]   OBJ       7.4
    x[14,9]   demand_9  1
    x[14,9]   c_disjunction_14_diajunct_1  9
    x[14,9]   c_disjunction_14_disjunct_2  1
    x[7,9]    OBJ       8.4
    x[7,9]    demand_9  1
    x[7,9]    c_disjunction_7_diajunct_1  9
    x[7,9]    c_disjunction_7_disjunct_2  1
    x[10,10]  demand_10  1
    x[10,10]  c_disjunction_10_diajunct_1  23
    x[10,10]  c_disjunction_10_disjunct_2  1
    x[25,10]  OBJ       7.6
    x[25,10]  demand_10  1
    x[25,10]  c_disjunction_25_diajunct_1  23
    x[25,10]  c_disjunction_25_disjunct_2  1
    x[24,10]  OBJ       16.5
    x[24,10]  demand_10  1
    x[24,10]  c_disjunction_24_diajunct_1  23
    x[24,10]  c_disjunction_24_disjunct_2  1
    x[11,11]  demand_11  1
    x[11,11]  c_disjunction_11_diajunct_1  34
    x[11,11]  c_disjunction_11_disjunct_2  1
    x[38,11]  OBJ       32
    x[38,11]  demand_11  1
    x[38,11]  c_disjunction_38_diajunct_1  34
    x[38,11]  c_disjunction_38_disjunct_2  1
    x[1,11]   OBJ       35.8
    x[1,11]   demand_11  1
    x[1,11]   c_disjunction_1_diajunct_1  34
    x[1,11]   c_disjunction_1_disjunct_2  1
    x[12,12]  demand_12  1
    x[12,12]  c_disjunction_12_diajunct_1  22
    x[12,12]  c_disjunction_12_disjunct_2  1
    x[30,12]  OBJ       16.6
    x[30,12]  demand_12  1
    x[30,12]  c_disjunction_30_diajunct_1  22
    x[30,12]  c_disjunction_30_disjunct_2  1
    x[19,12]  OBJ       22
    x[19,12]  demand_12  1
    x[19,12]  c_disjunction_19_diajunct_1  22
    x[19,12]  c_disjunction_19_disjunct_2  1
    x[13,13]  demand_13  1
    x[13,13]  c_disjunction_13_diajunct_1  34
    x[13,13]  c_disjunction_13_disjunct_2  1
    x[27,13]  OBJ       25
    x[27,13]  demand_13  1
    x[27,13]  c_disjunction_27_diajunct_1  34
    x[27,13]  c_disjunction_27_disjunct_2  1
    x[22,13]  OBJ       27.1
    x[22,13]  demand_13  1
    x[22,13]  c_disjunction_22_diajunct_1  34
    x[22,13]  c_disjunction_22_disjunct_2  1
    x[14,14]  demand_14  1
    x[14,14]  c_disjunction_14_diajunct_1  14
    x[14,14]  c_disjunction_14_disjunct_2  1
    x[5,14]   OBJ       11.5
    x[5,14]   demand_14  1
    x[5,14]   c_disjunction_5_diajunct_1  14
    x[5,14]   c_disjunction_5_disjunct_2  1
    x[9,14]   OBJ       11.6
    x[9,14]   demand_14  1
    x[9,14]   c_disjunction_9_diajunct_1  14
    x[9,14]   c_disjunction_9_disjunct_2  1
    x[15,15]  demand_15  1
    x[15,15]  c_disjunction_15_diajunct_1  21
    x[15,15]  c_disjunction_15_disjunct_2  1
    x[31,15]  OBJ       18.7
    x[31,15]  demand_15  1
    x[31,15]  c_disjunction_31_diajunct_1  21
    x[31,15]  c_disjunction_31_disjunct_2  1
    x[13,15]  OBJ       30
    x[13,15]  demand_15  1
    x[13,15]  c_disjunction_13_diajunct_1  21
    x[13,15]  c_disjunction_13_disjunct_2  1
    x[16,16]  demand_16  1
    x[16,16]  c_disjunction_16_diajunct_1  20
    x[16,16]  c_disjunction_16_disjunct_2  1
    x[22,16]  OBJ       29.6
    x[22,16]  demand_16  1
    x[22,16]  c_disjunction_22_diajunct_1  20
    x[22,16]  c_disjunction_22_disjunct_2  1
    x[20,16]  OBJ       35.2
    x[20,16]  demand_16  1
    x[20,16]  c_disjunction_20_diajunct_1  20
    x[20,16]  c_disjunction_20_disjunct_2  1
    x[17,17]  demand_17  1
    x[17,17]  c_disjunction_17_diajunct_1  33
    x[17,17]  c_disjunction_17_disjunct_2  1
    x[37,17]  OBJ       23.2
    x[37,17]  demand_17  1
    x[37,17]  c_disjunction_37_diajunct_1  33
    x[37,17]  c_disjunction_37_disjunct_2  1
    x[28,17]  OBJ       23.6
    x[28,17]  demand_17  1
    x[28,17]  c_disjunction_28_diajunct_1  33
    x[28,17]  c_disjunction_28_disjunct_2  1
    x[18,18]  demand_18  1
    x[18,18]  c_disjunction_18_diajunct_1  20
    x[18,18]  c_disjunction_18_disjunct_2  1
    x[25,18]  OBJ       27.8
    x[25,18]  demand_18  1
    x[25,18]  c_disjunction_25_diajunct_1  20
    x[25,18]  c_disjunction_25_disjunct_2  1
    x[10,18]  OBJ       34.2
    x[10,18]  demand_18  1
    x[10,18]  c_disjunction_10_diajunct_1  20
    x[10,18]  c_disjunction_10_disjunct_2  1
    x[19,19]  demand_19  1
    x[19,19]  c_disjunction_19_diajunct_1  10
    x[19,19]  c_disjunction_19_disjunct_2  1
    x[12,19]  OBJ       10
    x[12,19]  demand_19  1
    x[12,19]  c_disjunction_12_diajunct_1  10
    x[12,19]  c_disjunction_12_disjunct_2  1
    x[34,19]  OBJ       11.1
    x[34,19]  demand_19  1
    x[34,19]  c_disjunction_34_diajunct_1  10
    x[34,19]  c_disjunction_34_disjunct_2  1
    x[20,20]  demand_20  1
    x[20,20]  c_disjunction_20_diajunct_1  31
    x[20,20]  c_disjunction_20_disjunct_2  1
    x[2,20]   OBJ       42.6
    x[2,20]   demand_20  1
    x[2,20]   c_disjunction_2_diajunct_1  31
    x[2,20]   c_disjunction_2_disjunct_2  1
    x[31,20]  OBJ       44.5
    x[31,20]  demand_20  1
    x[31,20]  c_disjunction_31_diajunct_1  31
    x[31,20]  c_disjunction_31_disjunct_2  1
    x[21,21]  demand_21  1
    x[21,21]  c_disjunction_21_diajunct_1  31
    x[21,21]  c_disjunction_21_disjunct_2  1
    x[23,21]  OBJ       63.9
    x[23,21]  demand_21  1
    x[23,21]  c_disjunction_23_diajunct_1  31
    x[23,21]  c_disjunction_23_disjunct_2  1
    x[36,21]  OBJ       68.1
    x[36,21]  demand_21  1
    x[36,21]  c_disjunction_36_diajunct_1  31
    x[36,21]  c_disjunction_36_disjunct_2  1
    x[22,22]  demand_22  1
    x[22,22]  c_disjunction_22_diajunct_1  35
    x[22,22]  c_disjunction_22_disjunct_2  1
    x[13,22]  OBJ       27.9
    x[13,22]  demand_22  1
    x[13,22]  c_disjunction_13_diajunct_1  35
    x[13,22]  c_disjunction_13_disjunct_2  1
    x[27,22]  OBJ       49.6
    x[27,22]  demand_22  1
    x[27,22]  c_disjunction_27_diajunct_1  35
    x[27,22]  c_disjunction_27_disjunct_2  1
    x[23,23]  demand_23  1
    x[23,23]  c_disjunction_23_diajunct_1  20
    x[23,23]  c_disjunction_23_disjunct_2  1
    x[26,23]  OBJ       15.1
    x[26,23]  demand_23  1
    x[26,23]  c_disjunction_26_diajunct_1  20
    x[26,23]  c_disjunction_26_disjunct_2  1
    x[32,23]  OBJ       25.2
    x[32,23]  demand_23  1
    x[32,23]  c_disjunction_32_diajunct_1  20
    x[32,23]  c_disjunction_32_disjunct_2  1
    x[24,24]  demand_24  1
    x[24,24]  c_disjunction_24_diajunct_1  7
    x[24,24]  c_disjunction_24_disjunct_2  1
    x[10,24]  OBJ       5
    x[10,24]  demand_24  1
    x[10,24]  c_disjunction_10_diajunct_1  7
    x[10,24]  c_disjunction_10_disjunct_2  1
    x[25,24]  OBJ       6.3
    x[25,24]  demand_24  1
    x[25,24]  c_disjunction_25_diajunct_1  7
    x[25,24]  c_disjunction_25_disjunct_2  1
    x[25,25]  demand_25  1
    x[25,25]  c_disjunction_25_diajunct_1  21
    x[25,25]  c_disjunction_25_disjunct_2  1
    x[10,25]  OBJ       6.9
    x[10,25]  demand_25  1
    x[10,25]  c_disjunction_10_diajunct_1  21
    x[10,25]  c_disjunction_10_disjunct_2  1
    x[24,25]  OBJ       19
    x[24,25]  demand_25  1
    x[24,25]  c_disjunction_24_diajunct_1  21
    x[24,25]  c_disjunction_24_disjunct_2  1
    x[26,26]  demand_26  1
    x[26,26]  c_disjunction_26_diajunct_1  20
    x[26,26]  c_disjunction_26_disjunct_2  1
    x[32,26]  OBJ       10.5
    x[32,26]  demand_26  1
    x[32,26]  c_disjunction_32_diajunct_1  20
    x[32,26]  c_disjunction_32_disjunct_2  1
    x[23,26]  OBJ       15.1
    x[23,26]  demand_26  1
    x[23,26]  c_disjunction_23_diajunct_1  20
    x[23,26]  c_disjunction_23_disjunct_2  1
    x[27,27]  demand_27  1
    x[27,27]  c_disjunction_27_diajunct_1  9
    x[27,27]  c_disjunction_27_disjunct_2  1
    x[13,27]  OBJ       6.6
    x[13,27]  demand_27  1
    x[13,27]  c_disjunction_13_diajunct_1  9
    x[13,27]  c_disjunction_13_disjunct_2  1
    x[3,27]   OBJ       10.6
    x[3,27]   demand_27  1
    x[3,27]   c_disjunction_3_diajunct_1  9
    x[3,27]   c_disjunction_3_disjunct_2  1
    x[28,28]  demand_28  1
    x[28,28]  c_disjunction_28_diajunct_1  22
    x[28,28]  c_disjunction_28_disjunct_2  1
    x[4,28]   OBJ       7.2
    x[4,28]   demand_28  1
    x[4,28]   c_disjunction_4_diajunct_1  22
    x[4,28]   c_disjunction_4_disjunct_2  1
    x[17,28]  OBJ       15.7
    x[17,28]  demand_28  1
    x[17,28]  c_disjunction_17_diajunct_1  22
    x[17,28]  c_disjunction_17_disjunct_2  1
    x[29,29]  demand_29  1
    x[29,29]  c_disjunction_29_diajunct_1  9
    x[29,29]  c_disjunction_29_disjunct_2  1
    x[21,29]  OBJ       23.6
    x[21,29]  demand_29  1
    x[21,29]  c_disjunction_21_diajunct_1  9
    x[21,29]  c_disjunction_21_disjunct_2  1
    x[16,29]  OBJ       25.3
    x[16,29]  demand_29  1
    x[16,29]  c_disjunction_16_diajunct_1  9
    x[16,29]  c_disjunction_16_disjunct_2  1
    x[30,30]  demand_30  1
    x[30,30]  c_disjunction_30_diajunct_1  20
    x[30,30]  c_disjunction_30_disjunct_2  1
    x[12,30]  OBJ       15.1
    x[12,30]  demand_30  1
    x[12,30]  c_disjunction_12_diajunct_1  20
    x[12,30]  c_disjunction_12_disjunct_2  1
    x[19,30]  OBJ       27.7
    x[19,30]  demand_30  1
    x[19,30]  c_disjunction_19_diajunct_1  20
    x[19,30]  c_disjunction_19_disjunct_2  1
    x[31,31]  demand_31  1
    x[31,31]  c_disjunction_31_diajunct_1  7
    x[31,31]  c_disjunction_31_disjunct_2  1
    x[15,31]  OBJ       6.2
    x[15,31]  demand_31  1
    x[15,31]  c_disjunction_15_diajunct_1  7
    x[15,31]  c_disjunction_15_disjunct_2  1
    x[20,31]  OBJ       10
    x[20,31]  demand_31  1
    x[20,31]  c_disjunction_20_diajunct_1  7
    x[20,31]  c_disjunction_20_disjunct_2  1
    x[32,32]  demand_32  1
    x[32,32]  c_disjunction_32_diajunct_1  34
    x[32,32]  c_disjunction_32_disjunct_2  1
    x[26,32]  OBJ       17.8
    x[26,32]  demand_32  1
    x[26,32]  c_disjunction_26_diajunct_1  34
    x[26,32]  c_disjunction_26_disjunct_2  1
    x[34,32]  OBJ       37.6
    x[34,32]  demand_32  1
    x[34,32]  c_disjunction_34_diajunct_1  34
    x[34,32]  c_disjunction_34_disjunct_2  1
    x[33,33]  demand_33  1
    x[33,33]  c_disjunction_33_diajunct_1  24
    x[33,33]  c_disjunction_33_disjunct_2  1
    x[5,33]   OBJ       20.8
    x[5,33]   demand_33  1
    x[5,33]   c_disjunction_5_diajunct_1  24
    x[5,33]   c_disjunction_5_disjunct_2  1
    x[14,33]  OBJ       28.2
    x[14,33]  demand_33  1
    x[14,33]  c_disjunction_14_diajunct_1  24
    x[14,33]  c_disjunction_14_disjunct_2  1
    x[34,34]  demand_34  1
    x[34,34]  c_disjunction_34_diajunct_1  26
    x[34,34]  c_disjunction_34_disjunct_2  1
    x[32,34]  OBJ       28.8
    x[32,34]  demand_34  1
    x[32,34]  c_disjunction_32_diajunct_1  26
    x[32,34]  c_disjunction_32_disjunct_2  1
    x[19,34]  OBJ       28.8
    x[19,34]  demand_34  1
    x[19,34]  c_disjunction_19_diajunct_1  26
    x[19,34]  c_disjunction_19_disjunct_2  1
    x[35,35]  demand_35  1
    x[35,35]  c_disjunction_35_diajunct_1  18
    x[35,35]  c_disjunction_35_disjunct_2  1
    x[8,35]   OBJ       12.7
    x[8,35]   demand_35  1
    x[8,35]   c_disjunction_8_diajunct_1  18
    x[8,35]   c_disjunction_8_disjunct_2  1
    x[14,35]  OBJ       18.1
    x[14,35]  demand_35  1
    x[14,35]  c_disjunction_14_diajunct_1  18
    x[14,35]  c_disjunction_14_disjunct_2  1
    x[36,36]  demand_36  1
    x[36,36]  c_disjunction_36_diajunct_1  5
    x[36,36]  c_disjunction_36_disjunct_2  1
    x[6,36]   OBJ       9.2
    x[6,36]   demand_36  1
    x[6,36]   c_disjunction_6_diajunct_1  5
    x[6,36]   c_disjunction_6_disjunct_2  1
    x[23,36]  OBJ       9.5
    x[23,36]  demand_36  1
    x[23,36]  c_disjunction_23_diajunct_1  5
    x[23,36]  c_disjunction_23_disjunct_2  1
    x[37,37]  demand_37  1
    x[37,37]  c_disjunction_37_diajunct_1  18
    x[37,37]  c_disjunction_37_disjunct_2  1
    x[17,37]  OBJ       12.7
    x[17,37]  demand_37  1
    x[17,37]  c_disjunction_17_diajunct_1  18
    x[17,37]  c_disjunction_17_disjunct_2  1
    x[28,37]  OBJ       21
    x[28,37]  demand_37  1
    x[28,37]  c_disjunction_28_diajunct_1  18
    x[28,37]  c_disjunction_28_disjunct_2  1
    x[38,38]  demand_38  1
    x[38,38]  c_disjunction_38_diajunct_1  13
    x[38,38]  c_disjunction_38_disjunct_2  1
    x[11,38]  OBJ       12.2
    x[11,38]  demand_38  1
    x[11,38]  c_disjunction_11_diajunct_1  13
    x[11,38]  c_disjunction_11_disjunct_2  1
    x[6,38]   OBJ       13.9
    x[6,38]   demand_38  1
    x[6,38]   c_disjunction_6_diajunct_1  13
    x[6,38]   c_disjunction_6_disjunct_2  1
    MARKER    'MARKER'                 'INTEND'
RHS
    RHS1      demand_1  1
    RHS1      demand_2  1
    RHS1      demand_3  1
    RHS1      demand_4  1
    RHS1      demand_5  1
    RHS1      demand_6  1
    RHS1      demand_7  1
    RHS1      demand_8  1
    RHS1      demand_9  1
    RHS1      demand_10  1
    RHS1      demand_11  1
    RHS1      demand_12  1
    RHS1      demand_13  1
    RHS1      demand_14  1
    RHS1      demand_15  1
    RHS1      demand_16  1
    RHS1      demand_17  1
    RHS1      demand_18  1
    RHS1      demand_19  1
    RHS1      demand_20  1
    RHS1      demand_21  1
    RHS1      demand_22  1
    RHS1      demand_23  1
    RHS1      demand_24  1
    RHS1      demand_25  1
    RHS1      demand_26  1
    RHS1      demand_27  1
    RHS1      demand_28  1
    RHS1      demand_29  1
    RHS1      demand_30  1
    RHS1      demand_31  1
    RHS1      demand_32  1
    RHS1      demand_33  1
    RHS1      demand_34  1
    RHS1      demand_35  1
    RHS1      demand_36  1
    RHS1      demand_37  1
    RHS1      demand_38  1
    RHS1      c_disjunction_1_disjunct_2  2
    RHS1      R40       1
    RHS1      c_disjunction_2_disjunct_2  3
    RHS1      R43       1
    RHS1      c_disjunction_3_disjunct_2  2
    RHS1      R46       1
    RHS1      c_disjunction_4_disjunct_2  2
    RHS1      R49       1
    RHS1      c_disjunction_5_disjunct_2  3
    RHS1      R52       1
    RHS1      c_disjunction_6_disjunct_2  3
    RHS1      R55       1
    RHS1      c_disjunction_7_disjunct_2  3
    RHS1      R58       1
    RHS1      c_disjunction_8_disjunct_2  2
    RHS1      R61       1
    RHS1      c_disjunction_9_disjunct_2  4
    RHS1      R64       1
    RHS1      c_disjunction_10_disjunct_2  4
    RHS1      R67       1
    RHS1      c_disjunction_11_disjunct_2  3
    RHS1      R70       1
    RHS1      c_disjunction_12_disjunct_2  3
    RHS1      R73       1
    RHS1      c_disjunction_13_disjunct_2  5
    RHS1      R76       1
    RHS1      c_disjunction_14_disjunct_2  6
    RHS1      R79       1
    RHS1      c_disjunction_15_disjunct_2  2
    RHS1      R82       1
    RHS1      c_disjunction_16_disjunct_2  2
    RHS1      R85       1
    RHS1      c_disjunction_17_disjunct_2  4
    RHS1      R88       1
    RHS1      c_disjunction_18_disjunct_2  1
    RHS1      R91       1
    RHS1      c_disjunction_19_disjunct_2  4
    RHS1      R94       1
    RHS1      c_disjunction_20_disjunct_2  3
    RHS1      R97       1
    RHS1      c_disjunction_21_disjunct_2  2
    RHS1      R100      1
    RHS1      c_disjunction_22_disjunct_2  3
    RHS1      R103      1
    RHS1      c_disjunction_23_disjunct_2  5
    RHS1      R106      1
    RHS1      c_disjunction_24_disjunct_2  4
    RHS1      R109      1
    RHS1      c_disjunction_25_disjunct_2  4
    RHS1      R112      1
    RHS1      c_disjunction_26_disjunct_2  3
    RHS1      R115      1
    RHS1      c_disjunction_27_disjunct_2  4
    RHS1      R118      1
    RHS1      c_disjunction_28_disjunct_2  4
    RHS1      R121      1
    RHS1      c_disjunction_29_disjunct_2  1
    RHS1      R124      1
    RHS1      c_disjunction_30_disjunct_2  2
    RHS1      R127      1
    RHS1      c_disjunction_31_disjunct_2  3
    RHS1      R130      1
    RHS1      c_disjunction_32_disjunct_2  4
    RHS1      R133      1
    RHS1      c_disjunction_33_disjunct_2  2
    RHS1      R136      1
    RHS1      c_disjunction_34_disjunct_2  3
    RHS1      R139      1
    RHS1      c_disjunction_35_disjunct_2  2
    RHS1      R142      1
    RHS1      c_disjunction_36_disjunct_2  2
    RHS1      R145      1
    RHS1      c_disjunction_37_disjunct_2  2
    RHS1      R148      1
    RHS1      c_disjunction_38_disjunct_2  3
    RHS1      R151      1
BOUNDS
 BV BND1      ind_disjunction_1_disjunct_1
 BV BND1      ind_disjunction_2_disjunct_1
 BV BND1      ind_disjunction_3_disjunct_1
 BV BND1      ind_disjunction_4_disjunct_1
 BV BND1      ind_disjunction_5_disjunct_1
 BV BND1      ind_disjunction_6_disjunct_1
 BV BND1      ind_disjunction_7_disjunct_1
 BV BND1      ind_disjunction_8_disjunct_1
 BV BND1      ind_disjunction_9_disjunct_1
 BV BND1      ind_disjunction_10_disjunct_1
 BV BND1      ind_disjunction_11_disjunct_1
 BV BND1      ind_disjunction_12_disjunct_1
 BV BND1      ind_disjunction_13_disjunct_1
 BV BND1      ind_disjunction_14_disjunct_1
 BV BND1      ind_disjunction_15_disjunct_1
 BV BND1      ind_disjunction_16_disjunct_1
 BV BND1      ind_disjunction_17_disjunct_1
 BV BND1      ind_disjunction_18_disjunct_1
 BV BND1      ind_disjunction_19_disjunct_1
 BV BND1      ind_disjunction_20_disjunct_1
 BV BND1      ind_disjunction_21_disjunct_1
 BV BND1      ind_disjunction_22_disjunct_1
 BV BND1      ind_disjunction_23_disjunct_1
 BV BND1      ind_disjunction_24_disjunct_1
 BV BND1      ind_disjunction_25_disjunct_1
 BV BND1      ind_disjunction_26_disjunct_1
 BV BND1      ind_disjunction_27_disjunct_1
 BV BND1      ind_disjunction_28_disjunct_1
 BV BND1      ind_disjunction_29_disjunct_1
 BV BND1      ind_disjunction_30_disjunct_1
 BV BND1      ind_disjunction_31_disjunct_1
 BV BND1      ind_disjunction_32_disjunct_1
 BV BND1      ind_disjunction_33_disjunct_1
 BV BND1      ind_disjunction_34_disjunct_1
 BV BND1      ind_disjunction_35_disjunct_1
 BV BND1      ind_disjunction_36_disjunct_1
 BV BND1      ind_disjunction_37_disjunct_1
 BV BND1      ind_disjunction_38_disjunct_1
 BV BND1      ind_disjunction_1_disjunct_2
 BV BND1      ind_disjunction_2_disjunct_2
 BV BND1      ind_disjunction_3_disjunct_2
 BV BND1      ind_disjunction_4_disjunct_2
 BV BND1      ind_disjunction_5_disjunct_2
 BV BND1      ind_disjunction_6_disjunct_2
 BV BND1      ind_disjunction_7_disjunct_2
 BV BND1      ind_disjunction_8_disjunct_2
 BV BND1      ind_disjunction_9_disjunct_2
 BV BND1      ind_disjunction_10_disjunct_2
 BV BND1      ind_disjunction_11_disjunct_2
 BV BND1      ind_disjunction_12_disjunct_2
 BV BND1      ind_disjunction_13_disjunct_2
 BV BND1      ind_disjunction_14_disjunct_2
 BV BND1      ind_disjunction_15_disjunct_2
 BV BND1      ind_disjunction_16_disjunct_2
 BV BND1      ind_disjunction_17_disjunct_2
 BV BND1      ind_disjunction_18_disjunct_2
 BV BND1      ind_disjunction_19_disjunct_2
 BV BND1      ind_disjunction_20_disjunct_2
 BV BND1      ind_disjunction_21_disjunct_2
 BV BND1      ind_disjunction_22_disjunct_2
 BV BND1      ind_disjunction_23_disjunct_2
 BV BND1      ind_disjunction_24_disjunct_2
 BV BND1      ind_disjunction_25_disjunct_2
 BV BND1      ind_disjunction_26_disjunct_2
 BV BND1      ind_disjunction_27_disjunct_2
 BV BND1      ind_disjunction_28_disjunct_2
 BV BND1      ind_disjunction_29_disjunct_2
 BV BND1      ind_disjunction_30_disjunct_2
 BV BND1      ind_disjunction_31_disjunct_2
 BV BND1      ind_disjunction_32_disjunct_2
 BV BND1      ind_disjunction_33_disjunct_2
 BV BND1      ind_disjunction_34_disjunct_2
 BV BND1      ind_disjunction_35_disjunct_2
 BV BND1      ind_disjunction_36_disjunct_2
 BV BND1      ind_disjunction_37_disjunct_2
 BV BND1      ind_disjunction_38_disjunct_2
 BV BND1      x[1,1]  
 BV BND1      x[11,1] 
 BV BND1      x[24,1] 
 BV BND1      x[2,2]  
 BV BND1      x[7,2]  
 BV BND1      x[9,2]  
 BV BND1      x[3,3]  
 BV BND1      x[27,3] 
 BV BND1      x[13,3] 
 BV BND1      x[4,4]  
 BV BND1      x[28,4] 
 BV BND1      x[17,4] 
 BV BND1      x[5,5]  
 BV BND1      x[14,5] 
 BV BND1      x[33,5] 
 BV BND1      x[6,6]  
 BV BND1      x[38,6] 
 BV BND1      x[23,6] 
 BV BND1      x[7,7]  
 BV BND1      x[2,7]  
 BV BND1      x[9,7]  
 BV BND1      x[8,8]  
 BV BND1      x[35,8] 
 BV BND1      x[14,8] 
 BV BND1      x[9,9]  
 BV BND1      x[14,9] 
 BV BND1      x[7,9]  
 BV BND1      x[10,10]
 BV BND1      x[25,10]
 BV BND1      x[24,10]
 BV BND1      x[11,11]
 BV BND1      x[38,11]
 BV BND1      x[1,11] 
 BV BND1      x[12,12]
 BV BND1      x[30,12]
 BV BND1      x[19,12]
 BV BND1      x[13,13]
 BV BND1      x[27,13]
 BV BND1      x[22,13]
 BV BND1      x[14,14]
 BV BND1      x[5,14] 
 BV BND1      x[9,14] 
 BV BND1      x[15,15]
 BV BND1      x[31,15]
 BV BND1      x[13,15]
 BV BND1      x[16,16]
 BV BND1      x[22,16]
 BV BND1      x[20,16]
 BV BND1      x[17,17]
 BV BND1      x[37,17]
 BV BND1      x[28,17]
 BV BND1      x[18,18]
 BV BND1      x[25,18]
 BV BND1      x[10,18]
 BV BND1      x[19,19]
 BV BND1      x[12,19]
 BV BND1      x[34,19]
 BV BND1      x[20,20]
 BV BND1      x[2,20] 
 BV BND1      x[31,20]
 BV BND1      x[21,21]
 BV BND1      x[23,21]
 BV BND1      x[36,21]
 BV BND1      x[22,22]
 BV BND1      x[13,22]
 BV BND1      x[27,22]
 BV BND1      x[23,23]
 BV BND1      x[26,23]
 BV BND1      x[32,23]
 BV BND1      x[24,24]
 BV BND1      x[10,24]
 BV BND1      x[25,24]
 BV BND1      x[25,25]
 BV BND1      x[10,25]
 BV BND1      x[24,25]
 BV BND1      x[26,26]
 BV BND1      x[32,26]
 BV BND1      x[23,26]
 BV BND1      x[27,27]
 BV BND1      x[13,27]
 BV BND1      x[3,27] 
 BV BND1      x[28,28]
 BV BND1      x[4,28] 
 BV BND1      x[17,28]
 BV BND1      x[29,29]
 BV BND1      x[21,29]
 BV BND1      x[16,29]
 BV BND1      x[30,30]
 BV BND1      x[12,30]
 BV BND1      x[19,30]
 BV BND1      x[31,31]
 BV BND1      x[15,31]
 BV BND1      x[20,31]
 BV BND1      x[32,32]
 BV BND1      x[26,32]
 BV BND1      x[34,32]
 BV BND1      x[33,33]
 BV BND1      x[5,33] 
 BV BND1      x[14,33]
 BV BND1      x[34,34]
 BV BND1      x[32,34]
 BV BND1      x[19,34]
 BV BND1      x[35,35]
 BV BND1      x[8,35] 
 BV BND1      x[14,35]
 BV BND1      x[36,36]
 BV BND1      x[6,36] 
 BV BND1      x[23,36]
 BV BND1      x[37,37]
 BV BND1      x[17,37]
 BV BND1      x[28,37]
 BV BND1      x[38,38]
 BV BND1      x[11,38]
 BV BND1      x[6,38] 
ENDATA
